	This file is generated by VASPKIT code
 1.000000
    6.3440465725872661  -10.9882109893043420    0.0000000000000000
    6.3440465725872661   10.9882109893043420    0.0000000000000000
    0.0000000000000000    0.0000000000000000   20.5648195999999999
   Mg H
   128 8
Direct
    0.0833333333333333    0.1666666666666667    0.0625000000000000     Mg1
    0.0833333333333333    0.1666666666666667    0.3125000000000000     Mg2
    0.0833333333333333    0.1666666666666667    0.5625000000000000     Mg3
    0.0833333333333333    0.1666666666666667    0.8125000000000000     Mg4
    0.0833333333333333    0.4166666666666666    0.0625000000000000     Mg5
    0.0833333333333333    0.4166666666666666    0.3125000000000000     Mg6
    0.0833333333333333    0.4166666666666666    0.5625000000000000     Mg7
    0.0833333333333333    0.4166666666666666    0.8125000000000000     Mg8
    0.0833333333333333    0.6666666666666666    0.0625000000000000     Mg9
    0.0833333333333333    0.6666666666666666    0.3125000000000000    Mg10
    0.0833333333333333    0.6666666666666666    0.5625000000000000    Mg11
    0.0833333333333333    0.6666666666666666    0.8125000000000000    Mg12
    0.0833333333333333    0.9166666666666666    0.0625000000000000    Mg13
    0.0833333333333333    0.9166666666666666    0.3125000000000000    Mg14
    0.0833333333333333    0.9166666666666666    0.5625000000000000    Mg15
    0.0833333333333333    0.9166666666666666    0.8125000000000000    Mg16
    0.3333333333333333    0.1666666666666667    0.0625000000000000    Mg17
    0.3333333333333333    0.1666666666666667    0.3125000000000000    Mg18
    0.3333333333333333    0.1666666666666667    0.5625000000000000    Mg19
    0.3333333333333333    0.1666666666666667    0.8125000000000000    Mg20
    0.3333333333333333    0.4166666666666666    0.0625000000000000    Mg21
    0.3333333333333333    0.4166666666666666    0.3125000000000000    Mg22
    0.3333333333333333    0.4166666666666666    0.5625000000000000    Mg23
    0.3333333333333333    0.4166666666666666    0.8125000000000000    Mg24
    0.3333333333333333    0.6666666666666666    0.0625000000000000    Mg25
    0.3333333333333333    0.6666666666666666    0.3125000000000000    Mg26
    0.3333333333333333    0.6666666666666666    0.5625000000000000    Mg27
    0.3333333333333333    0.6666666666666666    0.8125000000000000    Mg28
    0.3333333333333333    0.9166666666666666    0.0625000000000000    Mg29
    0.3333333333333333    0.9166666666666666    0.3125000000000000    Mg30
    0.3333333333333333    0.9166666666666666    0.5625000000000000    Mg31
    0.3333333333333333    0.9166666666666666    0.8125000000000000    Mg32
    0.5833333333333334    0.1666666666666667    0.0625000000000000    Mg33
    0.5833333333333334    0.1666666666666667    0.3125000000000000    Mg34
    0.5833333333333334    0.1666666666666667    0.5625000000000000    Mg35
    0.5833333333333334    0.1666666666666667    0.8125000000000000    Mg36
    0.5833333333333334    0.4166666666666666    0.0625000000000000    Mg37
    0.5833333333333334    0.4166666666666666    0.3125000000000000    Mg38
    0.5833333333333334    0.4166666666666666    0.5625000000000000    Mg39
    0.5833333333333334    0.4166666666666666    0.8125000000000000    Mg40
    0.5833333333333334    0.6666666666666666    0.0625000000000000    Mg41
    0.5833333333333334    0.6666666666666666    0.3125000000000000    Mg42
    0.5833333333333334    0.6666666666666666    0.5625000000000000    Mg43
    0.5833333333333334    0.6666666666666666    0.8125000000000000    Mg44
    0.5833333333333334    0.9166666666666666    0.0625000000000000    Mg45
    0.5833333333333334    0.9166666666666666    0.3125000000000000    Mg46
    0.5833333333333334    0.9166666666666666    0.5625000000000000    Mg47
    0.5833333333333334    0.9166666666666666    0.8125000000000000    Mg48
    0.8333333333333334    0.1666666666666667    0.0625000000000000    Mg49
    0.8333333333333334    0.1666666666666667    0.3125000000000000    Mg50
    0.8333333333333334    0.1666666666666667    0.5625000000000000    Mg51
    0.8333333333333334    0.1666666666666667    0.8125000000000000    Mg52
    0.8333333333333334    0.4166666666666666    0.0625000000000000    Mg53
    0.8333333333333334    0.4166666666666666    0.3125000000000000    Mg54
    0.8333333333333334    0.4166666666666666    0.5625000000000000    Mg55
    0.8333333333333334    0.4166666666666666    0.8125000000000000    Mg56
    0.8333333333333334    0.6666666666666666    0.0625000000000000    Mg57
    0.8333333333333334    0.6666666666666666    0.3125000000000000    Mg58
    0.8333333333333334    0.6666666666666666    0.5625000000000000    Mg59
    0.8333333333333334    0.6666666666666666    0.8125000000000000    Mg60
    0.8333333333333334    0.9166666666666666    0.0625000000000000    Mg61
    0.8333333333333334    0.9166666666666666    0.3125000000000000    Mg62
    0.8333333333333334    0.9166666666666666    0.5625000000000000    Mg63
    0.8333333333333334    0.9166666666666666    0.8125000000000000    Mg64
    0.1666666666666667    0.0833333333333334    0.1875000000000000    Mg65
    0.1666666666666667    0.0833333333333334    0.4375000000000000    Mg66
    0.1666666666666667    0.0833333333333334    0.6875000000000000    Mg67
    0.1666666666666667    0.0833333333333334    0.9375000000000000    Mg68
    0.1666666666666667    0.3333333333333334    0.1875000000000000    Mg69
    0.1666666666666667    0.3333333333333334    0.4375000000000000    Mg70
    0.1666666666666667    0.3333333333333334    0.6875000000000000    Mg71
    0.1666666666666667    0.3333333333333334    0.9375000000000000    Mg72
    0.1666666666666667    0.5833333333333334    0.1875000000000000    Mg73
    0.1666666666666667    0.5833333333333334    0.4375000000000000    Mg74
    0.1666666666666667    0.5833333333333334    0.6875000000000000    Mg75
    0.1666666666666667    0.5833333333333334    0.9375000000000000    Mg76
    0.1666666666666667    0.8333333333333334    0.1875000000000000    Mg77
    0.1666666666666667    0.8333333333333334    0.4375000000000000    Mg78
    0.1666666666666667    0.8333333333333334    0.6875000000000000    Mg79
    0.1666666666666667    0.8333333333333334    0.9375000000000000    Mg80
    0.4166666666666667    0.0833333333333334    0.1875000000000000    Mg81
    0.4166666666666667    0.0833333333333334    0.4375000000000000    Mg82
    0.4166666666666667    0.0833333333333334    0.6875000000000000    Mg83
    0.4166666666666667    0.0833333333333334    0.9375000000000000    Mg84
    0.4166666666666667    0.3333333333333334    0.1875000000000000    Mg85
    0.4166666666666667    0.3333333333333334    0.4375000000000000    Mg86
    0.4166666666666667    0.3333333333333334    0.6875000000000000    Mg87
    0.4166666666666667    0.3333333333333334    0.9375000000000000    Mg88
    0.4166666666666667    0.5833333333333334    0.1875000000000000    Mg89
    0.4166666666666667    0.5833333333333334    0.4375000000000000    Mg90
    0.4166666666666667    0.5833333333333334    0.6875000000000000    Mg91
    0.4166666666666667    0.5833333333333334    0.9375000000000000    Mg92
    0.4166666666666667    0.8333333333333334    0.1875000000000000    Mg93
    0.4166666666666667    0.8333333333333334    0.4375000000000000    Mg94
    0.4166666666666667    0.8333333333333334    0.6875000000000000    Mg95
    0.4166666666666667    0.8333333333333334    0.9375000000000000    Mg96
    0.6666666666666667    0.0833333333333334    0.1875000000000000    Mg97
    0.6666666666666667    0.0833333333333334    0.4375000000000000    Mg98
    0.6666666666666667    0.0833333333333334    0.6875000000000000    Mg99
    0.6666666666666667    0.0833333333333334    0.9375000000000000   Mg100
    0.6666666666666667    0.3333333333333334    0.1875000000000000   Mg101
    0.6666666666666667    0.3333333333333334    0.4375000000000000   Mg102
    0.6666666666666667    0.3333333333333334    0.6875000000000000   Mg103
    0.6666666666666667    0.3333333333333334    0.9375000000000000   Mg104
    0.6666666666666667    0.5833333333333334    0.1875000000000000   Mg105
    0.6666666666666667    0.5833333333333334    0.4375000000000000   Mg106
    0.6666666666666667    0.5833333333333334    0.6875000000000000   Mg107
    0.6666666666666667    0.5833333333333334    0.9375000000000000   Mg108
    0.6666666666666667    0.8333333333333334    0.1875000000000000   Mg109
    0.6666666666666667    0.8333333333333334    0.4375000000000000   Mg110
    0.6666666666666667    0.8333333333333334    0.6875000000000000   Mg111
    0.6666666666666667    0.8333333333333334    0.9375000000000000   Mg112
    0.9166666666666667    0.0833333333333334    0.1875000000000000   Mg113
    0.9166666666666667    0.0833333333333334    0.4375000000000000   Mg114
    0.9166666666666667    0.0833333333333334    0.6875000000000000   Mg115
    0.9166666666666667    0.0833333333333334    0.9375000000000000   Mg116
    0.9166666666666667    0.3333333333333334    0.1875000000000000   Mg117
    0.9166666666666667    0.3333333333333334    0.4375000000000000   Mg118
    0.9166666666666667    0.3333333333333334    0.6875000000000000   Mg119
    0.9166666666666667    0.3333333333333334    0.9375000000000000   Mg120
    0.9166666666666667    0.5833333333333334    0.1875000000000000   Mg121
    0.9166666666666667    0.5833333333333334    0.4375000000000000   Mg122
    0.9166666666666667    0.5833333333333334    0.6875000000000000   Mg123
    0.9166666666666667    0.5833333333333334    0.9375000000000000   Mg124
    0.9166666666666667    0.8333333333333334    0.1875000000000000   Mg125
    0.9166666666666667    0.8333333333333334    0.4375000000000000   Mg126
    0.9166666666666667    0.8333333333333334    0.6875000000000000   Mg127
    0.9166666666666667    0.8333333333333334    0.9375000000000000   Mg128
    0.1359857070861497    0.1030030855612103    0.1219938783334472   H
    0.2145718785918207    0.9681798991939762    0.8073454812599695   H
    0.7621325736889619    0.1587160301918006    0.7073735202620468   H
    0.0178723980652264    0.4097724843455078    0.5682830437831571   H
    0.9210270525671133    0.7806598310343514    0.2458727477737884   H
    0.1715405260414501    0.9215646137361220    0.8758637159827183   H
    0.9757755098643943    0.2135657126671763    0.0090640847586513   H
    0.6384510734990932    0.4728456429784901    0.5009118503777858   H
